instances/A-n9-k3-m3-b1ampl_.txt
set K:= 1	2	3;
set C_H:= 1	2;
set C_S:= 3	4	5;
set C_F:= 6	7	8;
set M:= 9	10	11	12	13	14;
set L_B:= 15;
set A1:=
(0,*) 1 2 6 7 8 9 10 11 12 13 14 15 16
(1,*) 0 2 6 7 8 9 10 11 12 13 14 15 16
(2,*) 0 1 6 7 8 9 10 11 12 13 14 15 16
(6,*) 0 1 2 7 8 9 10 11 12 13 14 15 16
(7,*) 0 1 2 6 8 9 10 11 12 13 14 15 16
(8,*) 0 1 2 6 7 9 10 11 12 13 14 15 16
(9,*) 0 1 2 6 7 8 10 11 12 13 14 15 16
(10,*) 0 1 2 6 7 8 9 11 12 13 14 15 16
(11,*) 0 1 2 6 7 8 9 10 12 13 14 15 16
(12,*) 0 1 2 6 7 8 9 10 11 13 14 15 16
(13,*) 0 1 2 6 7 8 9 10 11 12 14 15 16
(14,*) 0 1 2 6 7 8 9 10 11 12 13 15 16
(15,*) 0 1 2 6 7 8 9 10 11 12 13 14 16
(16,*) 0 1 2 6 7 8 9 10 11 12 13 14 15
;
set A2:=
(9,*) 10
(10,*) 9
(11,*) 12
(12,*) 11
(13,*) 14
(14,*) 13
;
param BigM:=99999;
param n:= 3;
param d:=
1	13
2	12
3	10
4	9
5	12
6	24
7	2
8	12
;
param Q:=100;
param w:=
[9,*] 10 2
[10,*] 9 2
[11,*] 12 2
[12,*] 11 2
[13,*] 14 2
[14,*] 13 2
;
param V:=
[9,*] 10 90
[10,*] 9 90
[11,*] 12 89
[12,*] 11 89
[13,*] 14 96
[14,*] 13 96
;
param e:
	9	10	11	12	13	14	15:=
3		1		0		0		1		0		0		1	
4		1		0		0		1		0		0		1	
5		1		0		0		1		1		0		0	
6		0		0		1		0		0		0		0	
7		0		0		1		0		0		1		0	
8		0		1		0		0		0		1		0	
;
param p:=
1	1
2	1
3	1
;
param G:=
9	86
10	90
11	89
12	76
13	78
14	96
15	93
;
param s:=
0	0
1	10
2	10
6	10
7	10
8	10
9	10
10	10
11	10
12	10
13	10
14	10
15	10
;
param t:
	0	1	2	3	4	5	6	7	8	9	10	11	12	13	14	15	16:=
0	0.0	11.66	17.0	69.35	75.01	22.2	81.15	75.5	101.83	27.29	102.07	80.01	70.11	15.52	80.52	73.16	0.0
1	11.66	0.0	9.22	60.42	65.19	24.19	87.14	80.16	99.81	19.72	100.69	86.7	60.83	11.18	84.59	64.43	11.66
2	17.0	9.22	0.0	52.47	58.01	18.44	81.88	74.03	90.8	10.77	91.81	82.0	53.15	4.47	78.06	56.34	17.0
3	69.35	60.42	52.47	0.0	10.0	57.07	97.84	86.05	66.03	42.11	70.03	101.14	3.16	54.08	86.27	4.31	69.35
4	75.01	65.19	58.01	10.0	0.0	64.85	107.81	96.05	74.11	48.26	78.41	111.07	7.07	60.21	96.26	10.74	75.01
5	22.2	24.19	18.44	57.07	64.85	0.0	63.51	56.04	79.93	19.8	79.98	63.56	58.69	14.14	60.41	60.16	22.2
6	81.15	87.14	81.88	97.84	107.81	63.51	0.0	12.21	66.48	80.08	62.13	6.08	100.77	77.65	15.3	98.39	81.15
7	75.5	80.16	74.03	86.05	96.05	56.04	12.21	0.0	56.01	71.02	52.09	17.09	89.02	70.0	6.4	86.47	75.5
8	101.83	99.81	90.8	66.03	74.11	79.93	66.48	56.01	0.0	81.84	5.66	72.34	69.01	88.87	51.24	63.56	101.83
9	27.29	19.72	10.77	42.11	48.26	19.8	80.08	71.02	81.84	0.0	83.24	80.99	43.0	12.0	74.33	45.87	27.29
10	102.07	100.69	91.81	70.03	78.41	79.98	62.13	52.09	5.66	83.24	0.0	68.07	73.06	89.63	47.01	67.77	102.07
11	80.01	86.7	82.0	101.14	111.07	63.56	6.08	17.09	72.34	80.99	68.07	0.0	104.0	77.67	21.1	101.91	80.01
12	70.11	60.83	53.15	3.16	7.07	58.69	100.77	89.02	69.01	43.0	73.06	104.0	0.0	55.0	89.31	6.02	70.11
13	15.52	11.18	4.47	54.08	60.21	14.14	77.65	70.0	88.87	12.0	89.63	77.67	55.0	0.0	74.17	57.8	15.52
14	80.52	84.59	78.06	86.27	96.26	60.41	15.3	6.4	51.24	74.33	47.01	21.1	89.31	74.17	0.0	86.37	80.52
15	73.16	64.43	56.34	4.31	10.74	60.16	98.39	86.47	63.56	45.87	67.77	101.91	6.02	57.8	86.37	0.0	73.16
;
