ampl_outputs/A-n9-k3-m3-b1ampl_.txt.out
Gurobi 12.0.3:   lim:time = 14400

  mip:bestbound = 1

Set parameter LogToConsole to value 1

  tech:outlev = 1

Set parameter Cuts to value 3

  cut:cuts = 3

Set parameter Presolve to value 2

  pre:solve = 2

Set parameter MIPFocus to value 2

  mip:focus = 2

Set parameter Symmetry to value 2

  mip:symmetry = 2

Set parameter InfUnbdInfo to value 1

Gurobi Optimizer version 12.0.3 build v12.0.3rc0 (win64 - Windows 10.0 (19045.2))



CPU model: Intel(R) Core(TM) i7-10700 CPU @ 2.90GHz, instruction set [SSE2|AVX|AVX2]

Thread count: 8 physical cores, 16 logical processors, using up to 16 threads



Non-default parameters:

TimeLimit  14400

MIPFocus  2

Symmetry  2

Cuts  3

InfUnbdInfo  1

Presolve  2



Optimize a model with 323 rows, 614 columns and 3383 nonzeros

Model fingerprint: 0x8e292cf0

Model has 6 quadratic objective terms

Model has 9 quadratic constraints

Variable types: 35 continuous, 579 integer (0 binary)

Coefficient statistics:

  Matrix range     [1e+00, 1e+05]

  QMatrix range    [1e+00, 1e+00]

  QLMatrix range   [1e+00, 1e+01]

  Objective range  [4e+00, 1e+02]

  QObjective range [2e+00, 2e+00]

  Bounds range     [1e+00, 1e+02]

  RHS range        [1e+00, 1e+05]

  QRHS range       [1e+02, 1e+02]

Presolve removed 17 rows and 52 columns

Presolve time: 0.14s

Presolved: 690 rows, 928 columns, 5448 nonzeros

Variable types: 239 continuous, 689 integer (644 binary)

Found heuristic solution: objective 427.6000000

Root relaxation presolve removed 22 rows and 6 columns

Root relaxation presolved: 552 rows, 810 columns, 7919 nonzeros





Root relaxation: objective 3.205768e+01, 137 iterations, 0.01 seconds (0.01 work units)



    Nodes    |    Current Node    |     Objective Bounds      |     Work

 Expl Unexpl |  Obj  Depth IntInf | Incumbent    BestBd   Gap | It/Node Time



     0     0   32.05768    0   44  427.60000   32.05768  92.5%     -    0s

H    0     0                     388.8300000   32.05768  91.8%     -    0s

H    0     0                     188.4600000   50.45396  73.2%     -    0s

     0     0   71.13750    0   36  188.46000   71.13750  62.3%     -    0s

     0     0   71.13750    0   35  188.46000   71.13750  62.3%     -    0s

     0     0   71.13750    0   29  188.46000   71.13750  62.3%     -    0s

     0     0   71.13750    0   29  188.46000   71.13750  62.3%     -    0s

     0     0   73.62000    0   18  188.46000   73.62000  60.9%     -    0s

     0     0   73.62000    0   23  188.46000   73.62000  60.9%     -    0s

     0     0   73.62000    0   23  188.46000   73.62000  60.9%     -    0s

     0     0   74.68801    0   44  188.46000   74.68801  60.4%     -    0s

     0     0   77.69093    0   43  188.46000   77.69093  58.8%     -    0s

     0     2   77.69093    0   43  188.46000   77.69093  58.8%     -    0s

H   41    64                     183.6300000   77.69093  57.7%  15.2    0s

H  708   332                     182.5500000   77.69093  57.4%  13.3    1s

* 3074   858              15     181.2600000   93.19138  48.6%  14.4    1s



Cutting planes:

  Learned: 19

  Gomory: 24

  Lift-and-project: 13

  Cover: 32

  Implied bound: 67

  Projected implied bound: 6

  Clique: 3

  MIR: 43

  StrongCG: 6

  Flow cover: 326

  GUB cover: 1

  Inf proof: 14

  Zero half: 277

  Network: 1

  RLT: 136

  Relax-and-lift: 66



Explored 11138 nodes (176888 simplex iterations) in 4.01 seconds (4.04 work units)

Thread count was 16 (of 16 available processors)



Solution count 6: 181.26 182.55 183.63 ... 427.6



Optimal solution found (tolerance 1.00e-04)

Best objective 1.812600000000e+02, best bound 1.812600000000e+02, gap 0.0000%



AMPL MP initial flat model has 614 variables (0 integer, 579 binary);

Objectives: 1 quadratic; 

Constraints:  323 linear; 9 quadratic;



AMPL MP final model has 614 variables (0 integer, 579 binary);

Objectives: 1 quadratic; 

Constraints:  323 linear; 9 quadratic;





-----RESULTS INFO-----
running_time:  4.031000000000001
TC.best_bound:  181.26
TC:  181.26
MIP Gap (%):  0
=== Vehicle Routes ===
Vehicle 1: 0 → 1
Vehicle 1: 1 → 12
Vehicle 1: 2 → 16
Vehicle 1: 9 → 2
Vehicle 1: 12 → 9
Vehicle 2: 0 → 16
Vehicle 3: 0 → 16

=== Full Vehicle Routes ===
Vehicle 1: 0 → 1 → 12 → 9 → 2 → 0 (94<100)
Vehicle 2: 0 → 0 (0<100)
Vehicle 3: 0 → 0 (0<100)
Arc used by MRT line: y variables:
MRT used: 9 → 10
MRT used: 12 → 11
Customer assigment to PL: u variables:
3 9
4 9
5 12
6 11
7 11
8 10
Node is served by regular vehicle: g variables:
1
2
9
12
Customer assigment to Home delivery: gm variables:
1
2
Node total demands: ntd variables:
1 13 1
2 12 1
6 0 0
7 0 0
8 0 0
15 0 0
9 31 1
10 0 0
11 0 0
12 38 1
13 0 0
14 0 0
Customer's demand delivered to PL: l variables:
3
4
5
6
7
8
Lockers load <= capacity:
0 <= 93
19 <= 86
12 <= 90
26 <= 89
12 <= 76
0 <= 78
0 <= 96
